results_rootrelaxation/bin012_070_003.srr.sol
solution status: optimal solution found
objective value:                     8.64856230031949
_var694_                            0.140575079872205 	(obj:2)
_var723_                           0.0191693290734827 	(obj:1)
_var753_                              0.1629392971246 	(obj:1)
_var760_                            0.571884984025559 	(obj:2)
_var761_                            0.274760383386581 	(obj:0)
_var767_                            0.060702875399361 	(obj:1)
_var768_                            0.236421725239616 	(obj:0)
_var777_                          0.00319488817891433 	(obj:2)
_var784_                            0.428115015974441 	(obj:0)
_var786_                            0.124600638977636 	(obj:1)
_var793_                           0.0159744408945686 	(obj:2)
_var796_                            0.201277955271566 	(obj:0)
_var801_                            0.041533546325879 	(obj:0)
_var804_                           0.0479233226837069 	(obj:2)
_var809_                           0.0607028753993608 	(obj:1)
_var829_                            0.185303514376997 	(obj:0)
_var833_                            0.402555910543131 	(obj:0)
_var837_                           0.0575079872204478 	(obj:2)
_var841_                            0.578274760383387 	(obj:1)
_var844_                            0.146964856230032 	(obj:0)
_var845_                            0.364217252396166 	(obj:0)
_var846_                             0.39297124600639 	(obj:0)
_var847_                            0.376996805111821 	(obj:1)
_var851_                           0.0127795527156556 	(obj:1)
_var852_                            0.134185303514377 	(obj:1)
_var854_                            0.130990415335464 	(obj:2)
_var855_                            0.086261980830671 	(obj:1)
_var860_                             0.31629392971246 	(obj:1)
_var861_                            0.258785942492013 	(obj:1)
_var866_                           0.0287539936102239 	(obj:1)
_var870_                            0.031948881789137 	(obj:2)
_var871_                            0.408945686900958 	(obj:1)
_var875_                           0.0862619808306713 	(obj:1)
_var879_                            0.146964856230032 	(obj:1)
_var882_                            0.313099041533547 	(obj:0)
_var883_                            0.281150159744409 	(obj:1)
_var885_                            0.313099041533546 	(obj:2)
_var886_                            0.255591054313098 	(obj:0)
_var887_                            0.185303514376997 	(obj:1)
_var888_                            0.146964856230031 	(obj:2)
_var892_                            0.303514376996805 	(obj:0)
_var893_                          0.00958466453674073 	(obj:2)
_var895_                           0.0830670926517574 	(obj:0)
_var896_                            0.274760383386581 	(obj:0)
_var897_                            0.290734824281151 	(obj:1)
_var900_                            0.274760383386581 	(obj:1)
_var904_                          0.00319488817891317 	(obj:0)
_var907_                          0.00958466453674173 	(obj:2)
_var909_                            0.044728434504792 	(obj:0)
_var911_                            0.118210862619808 	(obj:2)
_var913_                            0.258785942492013 	(obj:0)
_var915_                            0.130990415335464 	(obj:1)
_var916_                           0.0159744408945685 	(obj:2)
_var918_                            0.274760383386581 	(obj:1)
_var920_                           0.0543130990415331 	(obj:1)
_var921_                           0.0287539936102232 	(obj:2)
_var922_                            0.274760383386582 	(obj:0)
_var925_                            0.281150159744409 	(obj:2)
_var929_                            0.108626198083068 	(obj:2)
_var930_                           0.0127795527156551 	(obj:0)
_var931_                           0.0798722044728443 	(obj:2)
_var933_                           0.0351437699680501 	(obj:2)
